(set-logic QF_BV)
(declare-fun _substvar_277_ () (_ BitVec 8))
(declare-fun _substvar_349_ () (_ BitVec 8))
(declare-fun _substvar_355_ () (_ BitVec 8))
(declare-fun _substvar_126_ () (_ BitVec 8))
(declare-fun _substvar_337_ () (_ BitVec 8))
(assert (let ( (?v_17 ((_ zero_extend 24) _substvar_126_)) (?v_14 ((_ zero_extend 24) _substvar_277_)) (?v_12 ((_ zero_extend 24) _substvar_337_)) (?v_3 ((_ zero_extend 24) _substvar_349_)) (?v_1 ((_ zero_extend 24) _substvar_355_))) (let ((?v_0 (bvadd ?v_1 (_ bv1 32)))) (let ((?v_2 (bvadd (bvadd ?v_0 (_ bv4269308 32)) (_ bv0 32)))) (let ((?v_4 (bvadd ?v_2 (_ bv6 32)))) (let ((?v_6 (bvadd (bvadd ?v_4 (bvadd ?v_3 (_ bv1 32))) (_ bv2 32)))) (let ((?v_5 (bvadd ?v_6 (_ bv0 32)))) (let ((?v_8 (bvadd ?v_5 (_ bv6 32)))) (let ((?v_9 (bvadd ?v_8 (_ bv0 32)))) (let ((?v_11 (bvadd ?v_9 (_ bv2 32)))) (let ((?v_10 (bvadd ?v_11 ?v_12))) (let ((?v_16 (bvadd (bvadd ?v_10 (_ bv1 32)) ?v_14))) (let ((?v_21 (bvadd (bvadd ?v_16 (_ bv1 32)) ?v_17))) (let ((?v_22 (bvadd (bvadd ?v_21 (_ bv1 32)) (_ bv0 32)))) (and true true true true (bvsle (_ bv1040 32) (bvsub ?v_22 (_ bv4269119 32))) true true true true true true true true true true true true true true true true true true true true true true true true (bvule (bvadd ?v_22 (_ bv2 32)) (_ bv4270134 32)))))))))))))))))
(check-sat)
(exit)
